============================[ Problem Statistics ]=============================|                                                                             ||  Number of variables:          4242                                         ||  Number of clauses:            9933                                         ||  Parse time:                   0.33 s                                       ||                                                                             |============================[ Search Statistics ]==============================| Conflicts |          ORIGINAL         |          LEARNT          | Progress ||           |    Vars  Clauses Literals |    Limit  Clauses Lit/Cl |          |===============================================================================|       100 |    1591     6138   512959 |     2250      100     53 | 62.501 % |===============================================================================restarts              : 2conflicts             : 190            (382 /sec)decisions             : 360            (0.00 % random) (723 /sec)propagations          : 10045          (20171 /sec)conflict literals     : 13206          (95.20 % deleted)CPU time              : 0.498 sSATISFIABLE